60   1770
186
106 52 153 115 176 31 78 64 76 159 99 63 91 180 41 141 51 117 67 38 80 128 165 120 100 97 54 154 69 93 78 125 41 103 100 71 140 111 62 87 56 121 94 93 162 121 102 152 39 58 162 174 166 48 107 52 105 131 41 1 2 267
1 3 253
1 4 102
1 5 294
1 6 33
1 7 20
1 8 183
1 9 254
1 10 132
1 11 159
1 12 186
1 13 236
1 14 44
1 15 275
1 16 241
1 17 73
1 18 248
1 19 236
1 20 223
1 21 193
1 22 105
1 23 32
1 24 113
1 25 239
1 26 224
1 27 236
1 28 31
1 29 87
1 30 217
1 31 176
1 32 170
1 33 89
1 34 294
1 35 150
1 36 32
1 37 136
1 38 220
1 39 214
1 40 268
1 41 75
1 42 258
1 43 279
1 44 152
1 45 41
1 46 265
1 47 144
1 48 249
1 49 245
1 50 42
1 51 71
1 52 151
1 53 135
1 54 179
1 55 20
1 56 208
1 57 116
1 58 60
1 59 219
1 60 158
2 3 79
2 4 189
2 5 27
2 6 241
2 7 114
2 8 260
2 9 278
2 10 133
2 11 206
2 12 12
2 13 277
2 14 283
2 15 255
2 16 105
2 17 210
2 18 208
2 19 291
2 20 47
2 21 252
2 22 282
2 23 217
2 24 119
2 25 113
2 26 264
2 27 87
2 28 230
2 29 36
2 30 276
2 31 279
2 32 255
2 33 152
2 34 127
2 35 114
2 36 132
2 37 116
2 38 146
2 39 70
2 40 173
2 41 44
2 42 239
2 43 116
2 44 134
2 45 232
2 46 129
2 47 81
2 48 23
2 49 31
2 50 219
2 51 84
2 52 16
2 53 281
2 54 178
2 55 19
2 56 283
2 57 273
2 58 26
2 59 169
2 60 274
3 4 284
3 5 228
3 6 77
3 7 17
3 8 288
3 9 158
3 10 151
3 11 209
3 12 233
3 13 150
3 14 61
3 15 151
3 16 170
3 17 19
3 18 277
3 19 245
3 20 25
3 21 267
3 22 211
3 23 157
3 24 60
3 25 88
3 26 43
3 27 291
3 28 14
3 29 133
3 30 244
3 31 255
3 32 70
3 33 227
3 34 227
3 35 25
3 36 267
3 37 89
3 38 280
3 39 168
3 40 206
3 41 219
3 42 294
3 43 250
3 44 182
3 45 48
3 46 43
3 47 267
3 48 235
3 49 149
3 50 163
3 51 137
3 52 180
3 53 187
3 54 232
3 55 269
3 56 34
3 57 133
3 58 188
3 59 278
3 60 151
4 5 103
4 6 123
4 7 175
4 8 112
4 9 120
4 10 63
4 11 94
4 12 206
4 13 83
4 14 125
4 15 90
4 16 267
4 17 34
4 18 235
4 19 64
4 20 80
4 21 79
4 22 86
4 23 112
4 24 90
4 25 225
4 26 130
4 27 272
4 28 66
4 29 107
4 30 195
4 31 279
4 32 162
4 33 71
4 34 69
4 35 32
4 36 97
4 37 231
4 38 68
4 39 119
4 40 138
4 41 72
4 42 57
4 43 258
4 44 123
4 45 203
4 46 154
4 47 186
4 48 125
4 49 160
4 50 262
4 51 36
4 52 99
4 53 253
4 54 104
4 55 221
4 56 137
4 57 273
4 58 115
4 59 68
4 60 130
5 6 65
5 7 245
5 8 74
5 9 146
5 10 237
5 11 108
5 12 53
5 13 101
5 14 224
5 15 205
5 16 87
5 17 260
5 18 15
5 19 282
5 20 75
5 21 30
5 22 26
5 23 94
5 24 24
5 25 276
5 26 207
5 27 161
5 28 199
5 29 207
5 30 38
5 31 203
5 32 216
5 33 190
5 34 71
5 35 278
5 36 114
5 37 15
5 38 269
5 39 242
5 40 293
5 41 77
5 42 174
5 43 73
5 44 58
5 45 275
5 46 25
5 47 61
5 48 196
5 49 205
5 50 112
5 51 222
5 52 52
5 53 262
5 54 272
5 55 113
5 56 261
5 57 71
5 58 196
5 59 105
5 60 48
6 7 70
6 8 201
6 9 219
6 10 10
6 11 163
6 12 40
6 13 205
6 14 264
6 15 164
6 16 220
6 17 184
6 18 291
6 19 103
6 20 24
6 21 97
6 22 144
6 23 213
6 24 111
6 25 216
6 26 134
6 27 245
6 28 14
6 29 148
6 30 175
6 31 264
6 32 87
6 33 282
6 34 293
6 35 63
6 36 213
6 37 154
6 38 101
6 39 220
6 40 75
6 41 104
6 42 128
6 43 165
6 44 286
6 45 77
6 46 19
6 47 200
6 48 289
6 49 32
6 50 245
6 51 177
6 52 43
6 53 56
6 54 145
6 55 168
6 56 234
6 57 84
6 58 208
6 59 74
6 60 88
7 8 147
7 9 220
7 10 300
7 11 78
7 12 196
7 13 169
7 14 114
7 15 34
7 16 295
7 17 210
7 18 85
7 19 270
7 20 44
7 21 297
7 22 274
7 23 50
7 24 122
7 25 69
7 26 289
7 27 96
7 28 127
7 29 249
7 30 76
7 31 140
7 32 93
7 33 196
7 34 217
7 35 90
7 36 189
7 37 226
7 38 190
7 39 164
7 40 230
7 41 127
7 42 264
7 43 110
7 44 228
7 45 73
7 46 280
7 47 76
7 48 291
7 49 89
7 50 203
7 51 239
7 52 48
7 53 88
7 54 217
7 55 131
7 56 36
7 57 166
7 58 269
7 59 155
7 60 249
8 9 45
8 10 172
8 11 87
8 12 234
8 13 182
8 14 145
8 15 31
8 16 28
8 17 233
8 18 34
8 19 136
8 20 40
8 21 253
8 22 175
8 23 138
8 24 221
8 25 192
8 26 108
8 27 173
8 28 147
8 29 225
8 30 283
8 31 209
8 32 215
8 33 24
8 34 276
8 35 116
8 36 64
8 37 206
8 38 92
8 39 37
8 40 204
8 41 15
8 42 291
8 43 258
8 44 241
8 45 11
8 46 187
8 47 17
8 48 104
8 49 77
8 50 21
8 51 294
8 52 258
8 53 202
8 54 105
8 55 69
8 56 118
8 57 244
8 58 284
8 59 181
8 60 88
9 10 247
9 11 288
9 12 63
9 13 50
9 14 117
9 15 296
9 16 197
9 17 65
9 18 30
9 19 299
9 20 282
9 21 161
9 22 222
9 23 180
9 24 19
9 25 113
9 26 295
9 27 47
9 28 235
9 29 58
9 30 96
9 31 117
9 32 136
9 33 145
9 34 136
9 35 160
9 36 273
9 37 142
9 38 206
9 39 185
9 40 128
9 41 108
9 42 124
9 43 227
9 44 252
9 45 209
9 46 208
9 47 164
9 48 292
9 49 244
9 50 229
9 51 168
9 52 260
9 53 111
9 54 248
9 55 29
9 56 286
9 57 76
9 58 272
9 59 31
9 60 251
10 11 181
10 12 34
10 13 199
10 14 24
10 15 257
10 16 154
10 17 34
10 18 68
10 19 283
10 20 47
10 21 216
10 22 210
10 23 175
10 24 39
10 25 93
10 26 39
10 27 61
10 28 221
10 29 131
10 30 148
10 31 150
10 32 95
10 33 267
10 34 275
10 35 37
10 36 74
10 37 120
10 38 23
10 39 244
10 40 184
10 41 159
10 42 243
10 43 43
10 44 88
10 45 225
10 46 113
10 47 202
10 48 39
10 49 140
10 50 254
10 51 201
10 52 66
10 53 77
10 54 46
10 55 41
10 56 137
10 57 107
10 58 176
10 59 224
10 60 24
11 12 178
11 13 28
11 14 31
11 15 262
11 16 51
11 17 120
11 18 284
11 19 214
11 20 146
11 21 248
11 22 47
11 23 60
11 24 189
11 25 176
11 26 252
11 27 235
11 28 240
11 29 140
11 30 84
11 31 70
11 32 200
11 33 191
11 34 228
11 35 209
11 36 294
11 37 272
11 38 75
11 39 169
11 40 235
11 41 189
11 42 292
11 43 219
11 44 18
11 45 20
11 46 246
11 47 231
11 48 298
11 49 281
11 50 87
11 51 91
11 52 233
11 53 129
11 54 28
11 55 72
11 56 273
11 57 96
11 58 200
11 59 175
11 60 19
12 13 213
12 14 93
12 15 95
12 16 283
12 17 78
12 18 220
12 19 58
12 20 80
12 21 88
12 22 153
12 23 266
12 24 69
12 25 148
12 26 84
12 27 18
12 28 267
12 29 170
12 30 105
12 31 110
12 32 226
12 33 70
12 34 298
12 35 75
12 36 56
12 37 238
12 38 203
12 39 154
12 40 109
12 41 173
12 42 100
12 43 185
12 44 90
12 45 189
12 46 14
12 47 155
12 48 115
12 49 98
12 50 49
12 51 83
12 52 184
12 53 127
12 54 254
12 55 18
12 56 259
12 57 237
12 58 192
12 59 50
12 60 79
13 14 252
13 15 110
13 16 35
13 17 224
13 18 233
13 19 47
13 20 21
13 21 253
13 22 124
13 23 194
13 24 231
13 25 58
13 26 211
13 27 77
13 28 140
13 29 75
13 30 263
13 31 107
13 32 162
13 33 217
13 34 150
13 35 44
13 36 266
13 37 145
13 38 65
13 39 227
13 40 88
13 41 123
13 42 62
13 43 239
13 44 300
13 45 226
13 46 171
13 47 63
13 48 287
13 49 76
13 50 134
13 51 54
13 52 103
13 53 157
13 54 140
13 55 184
13 56 125
13 57 231
13 58 159
13 59 162
13 60 277
14 15 202
14 16 69
14 17 266
14 18 283
14 19 103
14 20 34
14 21 85
14 22 173
14 23 230
14 24 197
14 25 241
14 26 140
14 27 10
14 28 247
14 29 280
14 30 232
14 31 62
14 32 290
14 33 27
14 34 85
14 35 90
14 36 200
14 37 265
14 38 67
14 39 260
14 40 154
14 41 15
14 42 149
14 43 122
14 44 223
14 45 116
14 46 294
14 47 274
14 48 294
14 49 80
14 50 260
14 51 238
14 52 175
14 53 25
14 54 85
14 55 90
14 56 111
14 57 269
14 58 57
14 59 297
14 60 105
15 16 92
15 17 260
15 18 262
15 19 136
15 20 266
15 21 260
15 22 155
15 23 172
15 24 187
15 25 292
15 26 141
15 27 13
15 28 103
15 29 251
15 30 95
15 31 14
15 32 162
15 33 270
15 34 152
15 35 78
15 36 53
15 37 154
15 38 290
15 39 260
15 40 288
15 41 153
15 42 116
15 43 280
15 44 242
15 45 205
15 46 252
15 47 269
15 48 135
15 49 181
15 50 238
15 51 170
15 52 285
15 53 189
15 54 46
15 55 170
15 56 199
15 57 299
15 58 101
15 59 38
15 60 233
16 17 281
16 18 134
16 19 36
16 20 125
16 21 234
16 22 47
16 23 233
16 24 105
16 25 168
16 26 147
16 27 167
16 28 48
16 29 154
16 30 234
16 31 268
16 32 76
16 33 68
16 34 100
16 35 220
16 36 281
16 37 82
16 38 163
16 39 14
16 40 283
16 41 97
16 42 128
16 43 81
16 44 33
16 45 150
16 46 96
16 47 65
16 48 243
16 49 209
16 50 48
16 51 297
16 52 178
16 53 134
16 54 249
16 55 29
16 56 152
16 57 177
16 58 86
16 59 69
16 60 12
17 18 166
17 19 112
17 20 285
17 21 79
17 22 156
17 23 286
17 24 205
17 25 125
17 26 93
17 27 88
17 28 265
17 29 147
17 30 123
17 31 266
17 32 119
17 33 125
17 34 264
17 35 139
17 36 54
17 37 296
17 38 250
17 39 25
17 40 23
17 41 70
17 42 68
17 43 295
17 44 104
17 45 141
17 46 176
17 47 204
17 48 225
17 49 80
17 50 78
17 51 107
17 52 236
17 53 24
17 54 59
17 55 164
17 56 42
17 57 273
17 58 91
17 59 48
17 60 173
18 19 136
18 20 186
18 21 127
18 22 181
18 23 163
18 24 204
18 25 147
18 26 121
18 27 17
18 28 126
18 29 236
18 30 247
18 31 257
18 32 16
18 33 43
18 34 238
18 35 161
18 36 268
18 37 275
18 38 93
18 39 287
18 40 107
18 41 218
18 42 287
18 43 70
18 44 226
18 45 167
18 46 187
18 47 98
18 48 182
18 49 163
18 50 211
18 51 196
18 52 13
18 53 119
18 54 233
18 55 288
18 56 110
18 57 63
18 58 201
18 59 229
18 60 128
19 20 133
19 21 100
19 22 27
19 23 15
19 24 55
19 25 280
19 26 27
19 27 26
19 28 173
19 29 72
19 30 111
19 31 49
19 32 148
19 33 241
19 34 43
19 35 237
19 36 275
19 37 154
19 38 113
19 39 156
19 40 100
19 41 206
19 42 222
19 43 104
19 44 246
19 45 249
19 46 203
19 47 105
19 48 300
19 49 266
19 50 222
19 51 155
19 52 27
19 53 74
19 54 264
19 55 19
19 56 95
19 57 101
19 58 82
19 59 259
19 60 111
20 21 282
20 22 46
20 23 229
20 24 44
20 25 299
20 26 268
20 27 157
20 28 124
20 29 255
20 30 37
20 31 81
20 32 28
20 33 196
20 34 293
20 35 49
20 36 216
20 37 124
20 38 282
20 39 288
20 40 275
20 41 182
20 42 283
20 43 247
20 44 154
20 45 146
20 46 218
20 47 286
20 48 23
20 49 92
20 50 191
20 51 90
20 52 187
20 53 86
20 54 133
20 55 30
20 56 129
20 57 198
20 58 78
20 59 86
20 60 234
21 22 82
21 23 221
21 24 144
21 25 40
21 26 237
21 27 46
21 28 213
21 29 205
21 30 270
21 31 94
21 32 251
21 33 87
21 34 61
21 35 300
21 36 158
21 37 178
21 38 220
21 39 269
21 40 54
21 41 238
21 42 85
21 43 185
21 44 62
21 45 272
21 46 30
21 47 152
21 48 139
21 49 202
21 50 114
21 51 290
21 52 268
21 53 92
21 54 75
21 55 125
21 56 233
21 57 83
21 58 185
21 59 284
21 60 18
22 23 97
22 24 215
22 25 299
22 26 287
22 27 263
22 28 101
22 29 111
22 30 119
22 31 155
22 32 205
22 33 16
22 34 65
22 35 258
22 36 108
22 37 243
22 38 136
22 39 257
22 40 231
22 41 67
22 42 148
22 43 73
22 44 79
22 45 272
22 46 21
22 47 156
22 48 225
22 49 117
22 50 95
22 51 153
22 52 109
22 53 256
22 54 296
22 55 159
22 56 161
22 57 199
22 58 239
22 59 190
22 60 183
23 24 196
23 25 234
23 26 73
23 27 117
23 28 10
23 29 206
23 30 285
23 31 254
23 32 129
23 33 210
23 34 98
23 35 236
23 36 93
23 37 131
23 38 18
23 39 105
23 40 284
23 41 155
23 42 181
23 43 64
23 44 277
23 45 128
23 46 253
23 47 67
23 48 164
23 49 138
23 50 118
23 51 143
23 52 74
23 53 224
23 54 190
23 55 135
23 56 197
23 57 55
23 58 282
23 59 190
23 60 214
24 25 28
24 26 205
24 27 250
24 28 92
24 29 282
24 30 181
24 31 110
24 32 200
24 33 244
24 34 268
24 35 208
24 36 153
24 37 152
24 38 97
24 39 194
24 40 184
24 41 83
24 42 291
24 43 48
24 44 80
24 45 196
24 46 206
24 47 202
24 48 136
24 49 27
24 50 61
24 51 246
24 52 73
24 53 273
24 54 133
24 55 48
24 56 144
24 57 289
24 58 37
24 59 142
24 60 35
25 26 279
25 27 60
25 28 207
25 29 129
25 30 170
25 31 254
25 32 66
25 33 173
25 34 33
25 35 14
25 36 100
25 37 113
25 38 114
25 39 154
25 40 57
25 41 224
25 42 63
25 43 224
25 44 145
25 45 127
25 46 28
25 47 82
25 48 93
25 49 292
25 50 273
25 51 273
25 52 285
25 53 260
25 54 204
25 55 274
25 56 126
25 57 54
25 58 138
25 59 50
25 60 252
26 27 240
26 28 236
26 29 295
26 30 282
26 31 12
26 32 190
26 33 84
26 34 78
26 35 265
26 36 252
26 37 240
26 38 137
26 39 122
26 40 192
26 41 85
26 42 257
26 43 163
26 44 220
26 45 228
26 46 156
26 47 266
26 48 64
26 49 183
26 50 206
26 51 118
26 52 286
26 53 213
26 54 148
26 55 240
26 56 79
26 57 257
26 58 254
26 59 243
26 60 287
27 28 63
27 29 208
27 30 24
27 31 25
27 32 63
27 33 242
27 34 196
27 35 245
27 36 48
27 37 144
27 38 55
27 39 71
27 40 223
27 41 287
27 42 291
27 43 129
27 44 129
27 45 250
27 46 259
27 47 274
27 48 133
27 49 78
27 50 232
27 51 268
27 52 281
27 53 273
27 54 249
27 55 186
27 56 275
27 57 256
27 58 230
27 59 272
27 60 46
28 29 233
28 30 221
28 31 193
28 32 116
28 33 105
28 34 218
28 35 32
28 36 89
28 37 181
28 38 85
28 39 36
28 40 41
28 41 105
28 42 71
28 43 138
28 44 36
28 45 269
28 46 216
28 47 218
28 48 208
28 49 193
28 50 286
28 51 162
28 52 62
28 53 143
28 54 228
28 55 120
28 56 168
28 57 229
28 58 93
28 59 196
28 60 93
29 30 235
29 31 44
29 32 143
29 33 179
29 34 36
29 35 164
29 36 130
29 37 271
29 38 153
29 39 100
29 40 135
29 41 119
29 42 295
29 43 214
29 44 134
29 45 78
29 46 204
29 47 46
29 48 59
29 49 158
29 50 233
29 51 42
29 52 14
29 53 38
29 54 152
29 55 148
29 56 221
29 57 65
29 58 268
29 59 115
29 60 76
30 31 77
30 32 74
30 33 299
30 34 50
30 35 55
30 36 239
30 37 83
30 38 19
30 39 106
30 40 105
30 41 50
30 42 41
30 43 21
30 44 65
30 45 88
30 46 36
30 47 211
30 48 46
30 49 210
30 50 20
30 51 138
30 52 150
30 53 238
30 54 148
30 55 80
30 56 125
30 57 41
30 58 16
30 59 268
30 60 187
31 32 50
31 33 294
31 34 256
31 35 218
31 36 77
31 37 64
31 38 235
31 39 199
31 40 254
31 41 138
31 42 296
31 43 55
31 44 194
31 45 188
31 46 92
31 47 286
31 48 14
31 49 159
31 50 169
31 51 72
31 52 300
31 53 84
31 54 178
31 55 230
31 56 186
31 57 192
31 58 33
31 59 77
31 60 142
32 33 56
32 34 85
32 35 198
32 36 22
32 37 275
32 38 61
32 39 46
32 40 213
32 41 154
32 42 135
32 43 242
32 44 216
32 45 72
32 46 100
32 47 93
32 48 50
32 49 19
32 50 31
32 51 43
32 52 97
32 53 166
32 54 210
32 55 137
32 56 226
32 57 206
32 58 217
32 59 124
32 60 108
33 34 41
33 35 118
33 36 161
33 37 262
33 38 29
33 39 159
33 40 281
33 41 126
33 42 163
33 43 213
33 44 70
33 45 218
33 46 100
33 47 88
33 48 294
33 49 102
33 50 160
33 51 245
33 52 249
33 53 70
33 54 76
33 55 184
33 56 140
33 57 83
33 58 155
33 59 211
33 60 25
34 35 82
34 36 130
34 37 124
34 38 106
34 39 84
34 40 77
34 41 278
34 42 159
34 43 290
34 44 102
34 45 39
34 46 172
34 47 63
34 48 16
34 49 27
34 50 180
34 51 75
34 52 59
34 53 92
34 54 95
34 55 102
34 56 108
34 57 216
34 58 149
34 59 22
34 60 28
35 36 205
35 37 48
35 38 27
35 39 179
35 40 286
35 41 23
35 42 275
35 43 171
35 44 88
35 45 251
35 46 208
35 47 172
35 48 187
35 49 97
35 50 200
35 51 137
35 52 40
35 53 177
35 54 102
35 55 119
35 56 51
35 57 122
35 58 300
35 59 269
35 60 294
36 37 181
36 38 97
36 39 132
36 40 227
36 41 299
36 42 12
36 43 20
36 44 24
36 45 248
36 46 186
36 47 229
36 48 231
36 49 228
36 50 161
36 51 113
36 52 106
36 53 270
36 54 186
36 55 155
36 56 180
36 57 62
36 58 261
36 59 45
36 60 187
37 38 300
37 39 233
37 40 229
37 41 179
37 42 24
37 43 94
37 44 262
37 45 74
37 46 22
37 47 235
37 48 259
37 49 155
37 50 295
37 51 169
37 52 137
37 53 249
37 54 88
37 55 118
37 56 24
37 57 254
37 58 102
37 59 13
37 60 109
38 39 147
38 40 17
38 41 250
38 42 208
38 43 22
38 44 73
38 45 179
38 46 278
38 47 150
38 48 99
38 49 225
38 50 122
38 51 134
38 52 259
38 53 162
38 54 130
38 55 300
38 56 101
38 57 235
38 58 21
38 59 29
38 60 193
39 40 247
39 41 206
39 42 88
39 43 246
39 44 191
39 45 204
39 46 230
39 47 272
39 48 41
39 49 96
39 50 57
39 51 39
39 52 144
39 53 148
39 54 212
39 55 115
39 56 171
39 57 24
39 58 152
39 59 212
39 60 189
40 41 98
40 42 240
40 43 86
40 44 282
40 45 286
40 46 166
40 47 199
40 48 193
40 49 23
40 50 13
40 51 248
40 52 164
40 53 298
40 54 41
40 55 77
40 56 120
40 57 76
40 58 287
40 59 71
40 60 188
41 42 149
41 43 264
41 44 21
41 45 256
41 46 278
41 47 103
41 48 163
41 49 91
41 50 11
41 51 90
41 52 101
41 53 22
41 54 45
41 55 196
41 56 22
41 57 256
41 58 126
41 59 22
41 60 200
42 43 149
42 44 148
42 45 90
42 46 246
42 47 221
42 48 147
42 49 262
42 50 235
42 51 14
42 52 167
42 53 68
42 54 148
42 55 148
42 56 238
42 57 252
42 58 202
42 59 216
42 60 226
43 44 169
43 45 156
43 46 102
43 47 176
43 48 84
43 49 94
43 50 94
43 51 178
43 52 88
43 53 239
43 54 201
43 55 90
43 56 187
43 57 138
43 58 189
43 59 175
43 60 105
44 45 251
44 46 236
44 47 214
44 48 289
44 49 98
44 50 184
44 51 155
44 52 170
44 53 212
44 54 30
44 55 24
44 56 278
44 57 80
44 58 45
44 59 285
44 60 261
45 46 149
45 47 127
45 48 53
45 49 182
45 50 246
45 51 291
45 52 108
45 53 139
45 54 26
45 55 253
45 56 278
45 57 207
45 58 41
45 59 95
45 60 77
46 47 111
46 48 19
46 49 163
46 50 133
46 51 59
46 52 45
46 53 213
46 54 179
46 55 251
46 56 126
46 57 31
46 58 122
46 59 23
46 60 288
47 48 83
47 49 184
47 50 178
47 51 46
47 52 291
47 53 39
47 54 36
47 55 147
47 56 16
47 57 120
47 58 218
47 59 275
47 60 149
48 49 201
48 50 267
48 51 141
48 52 253
48 53 214
48 54 208
48 55 63
48 56 188
48 57 76
48 58 28
48 59 25
48 60 257
49 50 67
49 51 73
49 52 64
49 53 159
49 54 33
49 55 44
49 56 144
49 57 206
49 58 245
49 59 31
49 60 298
50 51 258
50 52 161
50 53 265
50 54 25
50 55 23
50 56 229
50 57 230
50 58 292
50 59 161
50 60 256
51 52 25
51 53 52
51 54 169
51 55 175
51 56 88
51 57 28
51 58 231
51 59 64
51 60 45
52 53 134
52 54 295
52 55 296
52 56 101
52 57 14
52 58 103
52 59 132
52 60 43
53 54 40
53 55 219
53 56 235
53 57 280
53 58 110
53 59 268
53 60 223
54 55 286
54 56 137
54 57 201
54 58 201
54 59 131
54 60 247
55 56 80
55 57 105
55 58 106
55 59 10
55 60 41
56 57 54
56 58 201
56 59 20
56 60 220
57 58 124
57 59 15
57 60 53
58 59 50
58 60 271
59 60 155
